c read Graph
c width = 113
c time = 321 ms
c width = 9
c time = 491 ms
c width = 8
c time = 596 ms
c width = 8
c time = 4216 ms
s td 114 9 126
b 1 1 2 19
b 2 2 3 19 20
b 3 16 17 35 36
b 4 3 19 20 37
b 5 16 35 36 54
b 6 73 91 92 110
b 7 90 107 108 125
b 8 73 92 110 111
b 9 90 107 124 125
b 10 3 4 5 22
b 11 3 5 21 22 38 55
b 12 5 21 22 38 40 55 57
b 13 21 38 39 40 57
b 14 3 21 37 38 55
b 15 3 20 21 37 38
b 16 5 22 38 40 55 57 74
b 17 5 22 24 41 59 76 95 114
b 18 5 22 40 41 59 76 95 114
b 19 5 22 40 55 57 74 76 95 114
b 20 5 22 40 57 59 76 95 114
b 21 5 22 40 57 74 76 95 114
b 22 5 22 23 24 41
b 23 38 55 56 57 74
b 24 5 24 41 59 76 78 95 114
b 25 59 76 77 78 95
b 26 5 24 41 59 60 78 95 114
b 27 5 24 41 43 60 78 95 114
b 28 5 24 43 60 78 95 97 114
b 29 5 24 43 60 78 79 97 114
b 30 5 24 43 60 62 79 97 114
b 31 5 24 43 62 79 97 114 116
b 32 5 24 43 62 79 97 98 116
b 33 5 24 43 62 79 81 98 116
b 34 5 9 24 26 43 62 81 98 116
b 35 9 26 43 45 62 81 98 116
b 36 9 26 28 45 62 81 98 116
b 37 9 28 45 62 64 81 98 116
b 38 9 28 45 47 64 81 98 116
b 39 9 28 47 64 81 98 100 116 118
b 40 9 28 47 64 81 83 100 118
b 41 9 28 47 64 66 83 100 118
b 42 9 13 28 30 47 66 83 100 118
b 43 13 30 47 49 66 83 100 118
b 44 13 30 32 49 66 83 100 118
b 45 13 32 49 66 83 100 102 118 120
b 46 13 32 49 66 83 85 102 120
b 47 13 32 49 66 68 85 102 120
b 48 13 32 49 51 68 85 102 120
b 49 13 32 51 68 85 102 104 120 122
b 50 13 32 51 68 85 87 104 122
b 51 13 32 51 68 70 87 104 122
b 52 13 32 51 70 87 89 104 122
b 53 13 32 51 70 72 87 89 104 122
b 54 70 72 87 89 104 106 122
b 55 72 87 89 104 106 122 124
b 56 72 89 90 106 124
b 57 89 90 106 107 124
b 58 87 104 105 106 122 124
b 59 105 122 123 124
b 60 70 87 88 89 106
b 61 13 15 32 51 70 72 89
b 62 15 32 51 53 70 72 89
b 63 15 32 34 51 53 70 72
b 64 15 34 53 54 72
b 65 15 16 34 53 54
b 66 16 34 35 53 54
b 67 15 32 33 34 51
b 68 34 51 52 53 70
b 69 53 70 71 72 89
b 70 13 14 15 32
b 71 51 68 69 70 87
b 72 68 85 86 87 104
b 73 85 102 103 104 120 122
b 74 103 120 121 122
b 75 32 49 50 51 68
b 76 49 66 67 68 85
b 77 66 83 84 85 102
b 78 83 100 101 102 118 120
b 79 101 118 119 120
b 80 13 30 31 32 49
b 81 30 47 48 49 66
b 82 9 11 13 28 30 47
b 83 9 10 11 28
b 84 11 12 13 30
b 85 11 28 29 30 47
b 86 47 64 65 66 83
b 87 64 81 82 83 100
b 88 81 98 99 100 116 118
b 89 99 116 117 118
b 90 28 45 46 47 64
b 91 45 62 63 64 81
b 92 9 26 27 28 45
b 93 26 43 44 45 62
b 94 5 7 9 24 26 43
b 95 7 24 25 26 43
b 96 7 8 9 26
b 97 5 6 7 24
b 98 62 79 80 81 98
b 99 97 114 115 116
b 100 43 60 61 62 79
b 101 78 95 96 97 114
b 102 24 41 42 43 60
b 103 40 57 58 59 76
b 104 55 57 74 76 95 112 114
b 105 55 57 74 76 93 95 112
b 106 57 74 75 76 93
b 107 55 74 93 111 112
b 108 55 73 74 93 111
b 109 73 74 92 93 111
b 110 76 93 94 95 112
b 111 95 112 113 114
b 112 108 125 126
b 113 91 109 110
b 114 17 18 36
1 2
2 4
3 114
3 5
4 15
5 66
6 113
6 8
7 112
7 9
8 109
9 57
10 11
11 14
11 12
12 16
12 13
14 15
16 23
16 19
17 22
17 24
17 18
18 20
19 104
19 21
20 103
20 21
24 25
24 26
26 27
27 102
27 28
28 101
28 29
29 30
30 100
30 31
31 99
31 32
32 33
33 98
33 34
34 94
34 35
35 93
35 36
36 92
36 37
37 91
37 38
38 90
38 39
39 88
39 40
40 87
40 41
41 86
41 42
42 82
42 43
43 81
43 44
44 80
44 45
45 78
45 46
46 77
46 47
47 76
47 48
48 75
48 49
49 73
49 50
50 72
50 51
51 71
51 52
52 53
53 61
53 54
54 60
54 55
55 56
55 58
56 57
58 59
61 70
61 62
62 69
62 63
63 64
63 67
63 68
64 65
65 66
73 74
78 79
82 83
82 84
82 85
88 89
94 97
94 96
94 95
104 111
104 105
105 107
105 106
105 110
107 108
108 109
